Route #1: 44 29 49 36 50 16 32 15 19 23 43 42 22
Route #2: 25 13 52 34 11 24 41
Route #3: 4 28 7 12 45 48 2 37 30
Route #4: 39 5 14 21 9 17
Route #5: 31 35 8 46 51
Route #6: 33 6 20 3 47
Route #7: 1 10 26 40 18 38 27
Cost 1099.1865322798203